examples/dynamic/debug6/ProveIneq_Mitrinovic_7_44.smt2
(set-info :smt-lib-version 2.6)
(set-logic QF_NRA)
(set-info :source |
Generated by: Ali K. Uncu, Matthew England, and James H. Davenport
Generated on: 2022-01-05

Generator: SUMCracker-ProveInequality function by Manuel Kauers ("https://www3.risc.jku.at/research/combinat/software/ergosum/RISC/SumCracker.html")
Translated to SMT-Lib by Maple SMTLIB package.

Application: Automated proof of (7.44) in 
D.S. Mitrinovic, Elementary Inequalities, P. Noordhoff ltd - Groningen, (1964)
("https://www.isinj.com/mt-usamo/Elementary%20Inequalities%20-%20Mitrinovic,%20et.%20al.%20(1964,%20Noordhoff).pdf")

|)
(set-info :license "https://creativecommons.org/licenses/by/4.0/")
(set-info :status unsat)
(set-info :category "industrial")

(declare-fun V1 () Real)
(declare-fun V2 () Real)
(declare-fun V3 () Real)
(declare-fun V4 () Real)
(assert (and (<= 1 V3) (<= 0 V3) (<= (* (* V3 V4) 2) (- (* (* V2 V2) V3) (* V2 V2))) (< (+ (* (* V1 V1) V3) (* (* V1 V2 V3) 2) (* (* V2 V2) V3)) (* (* (+ 1 V3) (+ (* V1 V2) V4)) 2))))
(check-sat)
(exit)























