z3_origin/ProveIneq_Mitrinovic_7_44.txt
unsat
(:max-memory         18.43
 :memory             18.33
 :nlsat-arith-var    4
 :nlsat-atoms        19
 :nlsat-bool-var     3
 :nlsat-clauses      5
 :nlsat-conflicts    36
 :nlsat-decisions    3
 :nlsat-propagations 111
 :nlsat-stages       33
 :num-allocs         50349
 :rlimit-count       2812
 :time               0.00
 :total-time         0.02)
